%
% Generated Sudoku 16x16
% Density approximation: 0.50
%
x = array2d(1..n, 1..n, [
  12,   _,   _,   9,   _,   _,  10,   _,  13,  11,   _,  14,   _,   3,   2,   _,
   1,  14,   3,   _,   _,  12,   _,   _,   2,   _,   _,  16,   4,   6,   _,   9,
   6,   _,   _,   2,   1,   _,  14,  15,  12,   _,   3,   _,  13,   7,   _,  11,
   _,  11,   _,   7,   _,   _,   _,  16,   _,   5,   _,   6,  10,  15,   _,  12,
   _,   _,  12,   _,   _,   _,  13,   7,   _,  14,   6,   5,   _,   _,   _,   3,
  15,   7,   _,  16,   9,  14,  12,   _,   _,   _,   _,   _,   _,  11,   _,  13,
   _,   _,   _,   3,  15,   6,   4,   2,   8,   _,   _,  11,   _,   _,   _,   _,
   2,   9,   _,   _,   _,   8,   _,   1,   4,   _,   _,   _,   _,   _,  15,   _,
   _,   3,   _,   5,  12,   _,   _,   _,   _,  15,   _,  10,   2,   9,   _,  14,
   _,   8,   6,   _,   _,  13,  15,   _,   _,   _,  12,   _,   7,   1,   _,   5,
   _,  12,   9,  13,   3,   2,   1,   4,   _,   _,   _,   7,  15,   8,  16,  10,
  16,   _,   1,   _,   5,   9,   _,  10,   _,   _,   _,   _,   _,   4,   _,   _,
   _,   _,   2,   4,   _,   7,   _,   _,   _,   _,   _,  12,   _,  13,   _,   _,
   7,   _,   _,   _,  14,   _,   2,  12,   6,   _,   _,  15,   3,   _,   1,   4,
   _,   _,   _,  14,   4,  15,   8,   9,   _,   1,  13,   3,  11,  12,   _,   _,
   _,   _,  15,   _,   _,   1,   5,   _,   _,   _,   _,   2,   _,  16,   7,   8
]);

n = 16;
